(set-logic QF_S)
(set-option :parse-transducers true)
(set-option :produce-models true)
(define-fun-rec toLower ((x String) (y String)) Bool
   (or (and (= x "") (= y ""))
       (and (not (= x "")) (not (= y ""))
           (= (char.code (str.head y))
               (ite (and (<= 65 (char.code (str.head x)))
                       (<= (char.code (str.head x)) 90))
                   (+ (char.code (str.head x)) 32)
                   (char.code (str.head x))))
           (toLower (str.tail x) (str.tail y))))
)
(declare-fun r1[$i2] () String)
(declare-fun $r3 () String)
(declare-fun L25  () String)
(declare-fun L36  () String)
(declare-fun L15  () String)
(declare-fun L26  () String)
(declare-fun L53  () String)
(declare-fun L5  () String)
(declare-fun L21  () String)
(declare-fun L1  () String)
(declare-fun L49  () String)
(declare-fun L0  () String)
(assert (toLower $r3  L0 ))
(assert (toLower "type"  L49 ))
(assert (toLower "description"  L1 ))
(assert (toLower "length"  L21 ))
(assert (toLower "name"  L5 ))
(assert (toLower "field"  L53 ))
(assert (toLower r1[$i2]  L26 ))
(assert (toLower "table"  L15 ))
(assert (toLower "database"  L36 ))
(assert (toLower "option"  L25 ))

(assert (= L0 L1 ))
(assert (not (= L0 L1 )))
(assert (= L0 L5 ))
(assert (not (= L0 L1 )))
(assert (not (= L0 L5 )))
(assert (= L0 L5 ))
(assert (not (= L0 L1 )))
(assert (= L0 L15 ))
(assert (not (= L0 L5 )))
(assert (not (= L0 L15 )))
(assert (not (= L0 L21 )))
(assert (= L0 L1 ))
(assert (= L0 L25 ))
(assert (= L26 "html" ))
(assert (not (= L0 L5 )))
(assert (not (= L0 L1 )))
(assert (= L0 L25 ))
(assert (= L0 L1 ))
(assert (= L0 L36 ))
(assert (not (= L26 "sql" )))
(assert (= L0 L25 ))
(assert (not (= L0 L1 )))
(assert (not (= L0 L21 )))
(assert (= L0 L5 ))
(assert (not (= L0 L5 )))
(assert (not (= L0 L49 )))
(assert (not (= L0 L5 )))
(assert (= L0 L53 ))
(assert (not (= L0 L5 )))
(assert (not (= L0 L5 )))
(assert (not (= L0 L1 )))
(assert (not (= L0 L49 )))
(assert (not (= L0 L49 )))
(assert (not (= L0 L49 )))
(assert (= L0 L53 ))
(assert (= L0 L21 ))
(assert (not (= L0 L5 )))
(assert (not (= L0 L5 )))
(assert (= L0 L1 ))
(assert (not (= L0 L1 )))
(assert (not (= L0 L5 )))
(assert (not (= L0 L5 )))
(assert (not (= L0 L5 )))
(assert (not (= L0 L1 )))
(assert (not (= L0 L21 )))
(assert (not (= L0 L1 )))
(assert (not (= L0 L5 )))
(assert (= L0 L5 ))
(assert (not (= L0 L53 )))
(check-sat)
(get-model)
(exit)
